128 300 17 17 11 44 13 26 25 24 46 10 25 40 38 27 11 39 10 21 27 20 34 22 44 21 17 38 50 20 47 48 31 13 14 34 49 17 10 25 32 48 25 49 38 15 27 41 46 29 11 22 39 37 36 34 50 43 22 49 14 20 46 38 26 50 21 26 19 21 42 43 19 16 41 47 23 20 37 18 39 41 30 30 29 15 13 29 10 27 27 14 38 23 42 15 24 15 31 33 26 22 27 37 31 18 35 44 30 24 14 18 14 34 38 33 42 42 13 42 20 31 48 50 46 42 14 21 47 36 